HUN,8,6,360
1,10,2,24,0,20,5,21,3,3,4,17
2,12,0,18,1,11,4,22,5,25,3,30
1,26,2,29,0,4,4,16,3,3,5,23
0,4,1,21,2,21,5,17,4,27,3,11
1,25,0,25,2,1,4,30,5,24,3,23
2,6,1,4,0,19,3,9,5,8,4,13
2,15,0,19,1,4,3,1,4,7,5,12
2,13,1,16,0,23,4,27,3,18,5,27
